c 195_3_checker.cnf
c
c field = 195
c formula set type = 3_checker
c
p cnf 4 14
382 
384 
386 
-380 
383 
385 
387 
-381 
298 
328 
358 
-268 
299 
329 
359 
-269 
298 
328 
358 
-418 
299 
329 
359 
-419 
328 
358 
418 
-298 
329 
359 
419 
-299 
328 
358 
418 
-448 
329 
359 
419 
-449 
358 
418 
448 
-328 
359 
419 
449 
-329 
292 
324 
356 
-260 
293 
325 
357 
-261 
